proyfinal/src/viki/013/experimentInOfficeAgust.take6.output/5f761b4c-c482-4a81-a064-ac009f34fbd4.als.dat
{'cnf.clauses': '118081',
 'cnf.totvars': '69608',
 'conflict literals': '1',
 'conflicts': '2',
 'decisions': '768',
 'memused.mb': '14.46',
 'outcome': 'UNSAT',
 'propagations': '18955',
 'restarts': '1',
 'solver.msecs': 27,
 'task.msecs': 73}
