proyfinal/src/viki/013/experimentInOfficeAgust.take6.output/5f761b4c-c482-4a81-a064-ac009f34fbd4.als.out
Reading from standard input... Use '--help' for help.
============================[ Problem Statistics ]=============================
|                                                                             |
|  Number of variables:         69608                                         |
|  Number of clauses:          118081                                         |
|  Parse time:                   0.02 s                                       |
|                                                                             |
============================[ Search Statistics ]==============================
| Conflicts |          ORIGINAL         |          LEARNT          | Progress |
|           |    Vars  Clauses Literals |    Limit  Clauses Lit/Cl |          |
===============================================================================
===============================================================================
restarts              : 1
conflicts             : 2              (73 /sec)
decisions             : 768            (0.00 % random) (28007 /sec)
propagations          : 18955          (691233 /sec)
conflict literals     : 1              (0.00 % deleted)
Memory used           : 14.46 MB
CPU time              : 0.027422 s

UNSATISFIABLE
